Sun 20 May 09:17:59 CEST 2018
CPXPARAM_TimeLimit                               45
CPXPARAM_Threads                                 4
CPXPARAM_MIP_Strategy_CallbackReducedLP          0
Tried aggregator 5 times.
MIP Presolve eliminated 4370 rows and 2745 columns.
MIP Presolve modified 1322 coefficients.
Aggregator did 2461 substitutions.
Reduced MIP has 4730 rows, 4718 columns, and 13378 nonzeros.
Reduced MIP has 4281 binaries, 9 generals, 0 SOSs, and 987 indicators.
Presolve time = 0.05 sec. (64.66 ticks)
Probing time = 0.08 sec. (35.35 ticks)
Tried aggregator 5 times.
Aggregator did 2290 substitutions.
Reduced MIP has 2440 rows, 2428 columns, and 8798 nonzeros.
Reduced MIP has 1991 binaries, 437 generals, 0 SOSs, and 987 indicators.
Presolve time = 0.02 sec. (25.02 ticks)
Probing time = 0.07 sec. (49.66 ticks)
Tried aggregator 1 time.
Reduced MIP has 2440 rows, 2428 columns, and 8798 nonzeros.
Reduced MIP has 1991 binaries, 437 generals, 0 SOSs, and 987 indicators.
Presolve time = 0.01 sec. (7.77 ticks)
Probing time = 0.01 sec. (4.47 ticks)
Clique table members: 62714.
MIP emphasis: balance optimality and feasibility.
MIP search method: dynamic search.
Parallel mode: deterministic, using up to 4 threads.
Root relaxation solution time = 0.01 sec. (13.41 ticks)

        Nodes                                         Cuts/
   Node  Left     Objective  IInf  Best Integer    Best Bound    ItCnt     Gap

      0     0        0.0000  1142                      0.0000      259         
*     0+    0                           14.0000        0.0000           100.00%
      0     0        0.0000   932       14.0000  Cliques: 710      524   85.71%
*     0+    0                           11.0000        2.0000            81.82%
      0     0        0.0000   852       11.0000  Cliques: 710      812   81.82%
*     0+    0                            8.0000        2.0000            75.00%
      0     0        0.0000   638        8.0000  Cliques: 710     1091   75.00%
*     0+    0                            7.0000        2.0000            71.43%

Repeating presolve.
Tried aggregator 3 times.
MIP Presolve eliminated 1627 rows and 1417 columns.
MIP Presolve modified 21 coefficients.
Aggregator did 3 substitutions.
Reduced MIP has 871 rows, 811 columns, and 2840 nonzeros.
Reduced MIP has 660 binaries, 151 generals, 0 SOSs, and 249 indicators.
Presolve time = 0.01 sec. (9.89 ticks)
Probing time = 0.01 sec. (6.03 ticks)
Tried aggregator 2 times.
Aggregator did 35 substitutions.
Reduced MIP has 836 rows, 776 columns, and 2770 nonzeros.
Reduced MIP has 625 binaries, 151 generals, 0 SOSs, and 249 indicators.
Presolve time = 0.00 sec. (2.69 ticks)
Probing time = 0.01 sec. (5.91 ticks)
Tried aggregator 1 time.
Reduced MIP has 836 rows, 776 columns, and 2770 nonzeros.
Reduced MIP has 625 binaries, 151 generals, 0 SOSs, and 249 indicators.
Presolve time = 0.00 sec. (2.46 ticks)
Represolve time = 0.09 sec. (122.64 ticks)
Probing time = 0.00 sec. (2.71 ticks)
Clique table members: 3857.
MIP emphasis: balance optimality and feasibility.
MIP search method: dynamic search.
Parallel mode: deterministic, using up to 4 threads.
Root relaxation solution time = 0.01 sec. (14.78 ticks)

        Nodes                                         Cuts/
   Node  Left     Objective  IInf  Best Integer    Best Bound    ItCnt     Gap

*     0+    0                            7.0000        2.0000            71.43%
      0     0        0.4000   308        7.0000        2.0000     1464   71.43%
      0     0        0.4000   278        7.0000  Cliques: 309     1590   71.43%
      0     0        1.0000   250        7.0000     Cuts: 309     1741   71.43%
      0     0        1.0000   219        7.0000     Cuts: 309     1847   71.43%
      0     0        1.0000   221        7.0000     Cuts: 292     1947   71.43%
      0     0        1.0588   270        7.0000     Cuts: 309     2068   71.43%
      0     2        1.0588   270        7.0000        2.0000     2068   71.43%
Elapsed time = 2.81 sec. (2949.71 ticks, tree = 0.01 MB, solutions = 4)
*     8+    3                            6.0000        2.0000            66.67%

Clique cuts applied:  9
Implied bound cuts applied:  69
Zero-half cuts applied:  21
Gomory fractional cuts applied:  3

Root node processing (before b&c):
  Real time             =    2.81 sec. (2949.74 ticks)
Parallel b&c, 4 threads:
  Real time             =    0.02 sec. (12.90 ticks)
  Sync time (average)   =    0.01 sec.
  Wait time (average)   =    0.00 sec.
                          ------------
Total (root+branch&cut) =    2.83 sec. (2962.64 ticks)
   | W
 L | 0 1 2 3 4 5 6 
------------------
 0 | 6 6 6 8 8 8 . 
 1 | 6 6 6 8 8 8 4 
 2 | 6 6 6 8 8 8 4 
 3 | 2 3 3 7 7 7 . 
 4 | 5 3 3 7 7 7 . 
 5 | 5 . 1 7 7 7 . 
 6 | . . . . . . . 
 7 | . . . . . . . 
 8 | . . . . . . . 
 9 | . . . . . . . 
10 | . . . . . . . 
11 | . . . . . . . 
12 | . . . . . . . 
13 | . . . . . . . 
14 | . . . . . . . 
15 | . . . . . . . 
16 | . . . . . . . 

Boxes' corners:      (w,l)
    Box 1 is at 
        top left     (2,5)
        bottom right (2,5)

    Box 2 is at 
        top left     (0,3)
        bottom right (0,3)

    Box 3 is at 
        top left     (1,3)
        bottom right (2,4)

    Box 4 is at 
        top left     (6,1)
        bottom right (6,2)

    Box 5 is at 
        top left     (0,4)
        bottom right (0,5)

    Box 6 is at 
        top left     (0,0)
        bottom right (2,2)

    Box 7 is at 
        top left     (3,3)
        bottom right (5,5)

    Box 8 is at 
        top left     (3,0)
        bottom right (5,2)

    Roll length used: 6
In 7.78 seconds
